c colouring generated by benchmark framework
p edge 450 8263
v 1 8
v 2 7
v 3 18
v 4 24
v 5 1
v 6 19
v 7 23
v 8 10
v 9 0
v 10 24
v 11 20
v 12 17
v 13 1
v 14 23
v 15 8
v 16 10
v 17 10
v 18 8
v 19 16
v 20 13
v 21 5
v 22 9
v 23 8
v 24 10
v 25 14
v 26 12
v 27 17
v 28 2
v 29 15
v 30 12
v 31 6
v 32 9
v 33 12
v 34 19
v 35 12
v 36 13
v 37 6
v 38 1
v 39 19
v 40 15
v 41 15
v 42 11
v 43 6
v 44 19
v 45 17
v 46 8
v 47 0
v 48 5
v 49 14
v 50 7
v 51 8
v 52 15
v 53 2
v 54 3
v 55 8
v 56 13
v 57 3
v 58 23
v 59 5
v 60 16
v 61 18
v 62 3
v 63 7
v 64 7
v 65 8
v 66 8
v 67 0
v 68 11
v 69 6
v 70 17
v 71 9
v 72 4
v 73 4
v 74 24
v 75 19
v 76 18
v 77 1
v 78 2
v 79 3
v 80 14
v 81 9
v 82 24
v 83 7
v 84 14
v 85 9
v 86 24
v 87 23
v 88 21
v 89 0
v 90 6
v 91 23
v 92 5
v 93 16
v 94 4
v 95 2
v 96 11
v 97 24
v 98 7
v 99 18
v 100 4
v 101 0
v 102 11
v 103 18
v 104 23
v 105 0
v 106 21
v 107 24
v 108 15
v 109 16
v 110 18
v 111 4
v 112 9
v 113 1
v 114 11
v 115 7
v 116 10
v 117 0
v 118 24
v 119 4
v 120 5
v 121 1
v 122 7
v 123 13
v 124 2
v 125 0
v 126 0
v 127 3
v 128 5
v 129 6
v 130 14
v 131 10
v 132 6
v 133 13
v 134 14
v 135 5
v 136 5
v 137 6
v 138 0
v 139 22
v 140 24
v 141 24
v 142 10
v 143 16
v 144 16
v 145 0
v 146 14
v 147 7
v 148 7
v 149 1
v 150 16
v 151 14
v 152 2
v 153 22
v 154 10
v 155 8
v 156 16
v 157 24
v 158 2
v 159 17
v 160 18
v 161 6
v 162 21
v 163 1
v 164 20
v 165 3
v 166 13
v 167 19
v 168 10
v 169 4
v 170 6
v 171 23
v 172 19
v 173 20
v 174 14
v 175 15
v 176 8
v 177 18
v 178 5
v 179 0
v 180 15
v 181 23
v 182 7
v 183 9
v 184 4
v 185 12
v 186 18
v 187 9
v 188 10
v 189 14
v 190 9
v 191 16
v 192 2
v 193 0
v 194 15
v 195 3
v 196 3
v 197 17
v 198 19
v 199 5
v 200 1
v 201 0
v 202 8
v 203 20
v 204 12
v 205 2
v 206 11
v 207 0
v 208 21
v 209 10
v 210 8
v 211 9
v 212 21
v 213 16
v 214 22
v 215 21
v 216 21
v 217 1
v 218 13
v 219 0
v 220 24
v 221 1
v 222 10
v 223 23
v 224 24
v 225 0
v 226 13
v 227 5
v 228 24
v 229 16
v 230 0
v 231 1
v 232 1
v 233 4
v 234 3
v 235 1
v 236 17
v 237 1
v 238 3
v 239 7
v 240 4
v 241 5
v 242 22
v 243 2
v 244 9
v 245 4
v 246 7
v 247 0
v 248 19
v 249 20
v 250 14
v 251 8
v 252 7
v 253 21
v 254 7
v 255 12
v 256 18
v 257 22
v 258 8
v 259 6
v 260 4
v 261 16
v 262 14
v 263 4
v 264 23
v 265 15
v 266 9
v 267 24
v 268 10
v 269 14
v 270 2
v 271 18
v 272 1
v 273 20
v 274 6
v 275 2
v 276 14
v 277 19
v 278 13
v 279 6
v 280 3
v 281 20
v 282 1
v 283 10
v 284 23
v 285 3
v 286 4
v 287 15
v 288 2
v 289 8
v 290 16
v 291 11
v 292 1
v 293 18
v 294 17
v 295 15
v 296 0
v 297 20
v 298 15
v 299 17
v 300 11
v 301 22
v 302 0
v 303 5
v 304 6
v 305 23
v 306 6
v 307 1
v 308 24
v 309 8
v 310 11
v 311 13
v 312 3
v 313 2
v 314 17
v 315 23
v 316 0
v 317 9
v 318 0
v 319 4
v 320 1
v 321 5
v 322 7
v 323 20
v 324 5
v 325 11
v 326 8
v 327 3
v 328 15
v 329 11
v 330 4
v 331 21
v 332 2
v 333 16
v 334 17
v 335 24
v 336 9
v 337 19
v 338 6
v 339 7
v 340 3
v 341 4
v 342 15
v 343 20
v 344 22
v 345 0
v 346 10
v 347 13
v 348 4
v 349 2
v 350 24
v 351 9
v 352 21
v 353 10
v 354 8
v 355 3
v 356 11
v 357 24
v 358 22
v 359 9
v 360 18
v 361 0
v 362 6
v 363 13
v 364 16
v 365 13
v 366 12
v 367 20
v 368 3
v 369 4
v 370 0
v 371 10
v 372 9
v 373 8
v 374 1
v 375 22
v 376 8
v 377 18
v 378 2
v 379 0
v 380 16
v 381 23
v 382 17
v 383 0
v 384 9
v 385 1
v 386 18
v 387 20
v 388 3
v 389 10
v 390 2
v 391 22
v 392 1
v 393 7
v 394 14
v 395 0
v 396 0
v 397 17
v 398 6
v 399 11
v 400 11
v 401 9
v 402 19
v 403 19
v 404 2
v 405 9
v 406 23
v 407 2
v 408 3
v 409 22
v 410 24
v 411 12
v 412 1
v 413 1
v 414 22
v 415 18
v 416 23
v 417 1
v 418 8
v 419 12
v 420 19
v 421 15
v 422 22
v 423 14
v 424 12
v 425 11
v 426 5
v 427 24
v 428 18
v 429 4
v 430 19
v 431 21
v 432 18
v 433 12
v 434 22
v 435 0
v 436 4
v 437 1
v 438 23
v 439 5
v 440 3
v 441 0
v 442 6
v 443 5
v 444 19
v 445 14
v 446 1
v 447 23
v 448 19
v 449 11
v 450 5
